c nIsolatedPIs 0
c maxPI 32
p cnf 229 592
c gate 33 1 17 0
1 -33 0
17 -33 0
-1 -17 33 0
c gate 34 -2 -18 0
-2 -34 0
-18 -34 0
2 18 34 0
c gate 35 33 34 0
33 -35 0
34 -35 0
-33 -34 35 0
c gate 36 10 -26 0
10 -36 0
-26 -36 0
-10 26 36 0
c gate 37 9 -25 0
9 -37 0
-25 -37 0
-9 25 37 0
c gate 38 -9 25 0
-9 -38 0
25 -38 0
9 -25 38 0
c gate 39 8 -24 0
8 -39 0
-24 -39 0
-8 24 39 0
c gate 40 -8 -24 0
-8 -40 0
-24 -40 0
8 24 40 0
c gate 41 8 24 0
8 -41 0
24 -41 0
-8 -24 41 0
c gate 42 -40 -41 0
-40 -42 0
-41 -42 0
40 41 42 0
c gate 43 -7 23 0
-7 -43 0
23 -43 0
7 -23 43 0
c gate 44 6 -22 0
6 -44 0
-22 -44 0
-6 22 44 0
c gate 45 7 -23 0
7 -45 0
-23 -45 0
-7 23 45 0
c gate 46 -43 -45 0
-43 -46 0
-45 -46 0
43 45 46 0
c gate 47 -44 46 0
-44 -47 0
46 -47 0
44 -46 47 0
c gate 48 -2 18 0
-2 -48 0
18 -48 0
2 -18 48 0
c gate 49 -1 17 0
-1 -49 0
17 -49 0
1 -17 49 0
c gate 50 -48 -49 0
-48 -50 0
-49 -50 0
48 49 50 0
c gate 51 2 -18 0
2 -51 0
-18 -51 0
-2 18 51 0
c gate 52 3 -19 0
3 -52 0
-19 -52 0
-3 19 52 0
c gate 53 -51 -52 0
-51 -53 0
-52 -53 0
51 52 53 0
c gate 54 -50 53 0
-50 -54 0
53 -54 0
50 -53 54 0
c gate 55 -3 19 0
-3 -55 0
19 -55 0
3 -19 55 0
c gate 56 -4 20 0
-4 -56 0
20 -56 0
4 -20 56 0
c gate 57 -55 -56 0
-55 -57 0
-56 -57 0
55 56 57 0
c gate 58 -54 57 0
-54 -58 0
57 -58 0
54 -57 58 0
c gate 59 4 -20 0
4 -59 0
-20 -59 0
-4 20 59 0
c gate 60 5 -21 0
5 -60 0
-21 -60 0
-5 21 60 0
c gate 61 -59 -60 0
-59 -61 0
-60 -61 0
59 60 61 0
c gate 62 -58 61 0
-58 -62 0
61 -62 0
58 -61 62 0
c gate 63 -5 21 0
-5 -63 0
21 -63 0
5 -21 63 0
c gate 64 -6 -22 0
-6 -64 0
-22 -64 0
6 22 64 0
c gate 65 6 22 0
6 -65 0
22 -65 0
-6 -22 65 0
c gate 66 -64 -65 0
-64 -66 0
-65 -66 0
64 65 66 0
c gate 67 -63 -66 0
-63 -67 0
-66 -67 0
63 66 67 0
c gate 68 -62 67 0
-62 -68 0
67 -68 0
62 -67 68 0
c gate 69 47 -68 0
47 -69 0
-68 -69 0
-47 68 69 0
c gate 70 -43 -69 0
-43 -70 0
-69 -70 0
43 69 70 0
c gate 71 -42 70 0
-42 -71 0
70 -71 0
42 -70 71 0
c gate 72 -39 -71 0
-39 -72 0
-71 -72 0
39 71 72 0
c gate 73 -38 -72 0
-38 -73 0
-72 -73 0
38 72 73 0
c gate 74 -37 -73 0
-37 -74 0
-73 -74 0
37 73 74 0
c gate 75 -10 -26 0
-10 -75 0
-26 -75 0
10 26 75 0
c gate 76 10 26 0
10 -76 0
26 -76 0
-10 -26 76 0
c gate 77 -75 -76 0
-75 -77 0
-76 -77 0
75 76 77 0
c gate 78 -74 -77 0
-74 -78 0
-77 -78 0
74 77 78 0
c gate 79 -36 -78 0
-36 -79 0
-78 -79 0
36 78 79 0
c gate 80 -11 -27 0
-11 -80 0
-27 -80 0
11 27 80 0
c gate 81 11 27 0
11 -81 0
27 -81 0
-11 -27 81 0
c gate 82 -80 -81 0
-80 -82 0
-81 -82 0
80 81 82 0
c gate 83 79 -82 0
79 -83 0
-82 -83 0
-79 82 83 0
c gate 84 -14 -30 0
-14 -84 0
-30 -84 0
14 30 84 0
c gate 85 14 30 0
14 -85 0
30 -85 0
-14 -30 85 0
c gate 86 -84 -85 0
-84 -86 0
-85 -86 0
84 85 86 0
c gate 87 16 32 0
16 -87 0
32 -87 0
-16 -32 87 0
c gate 88 -16 -32 0
-16 -88 0
-32 -88 0
16 32 88 0
c gate 89 -87 -88 0
-87 -89 0
-88 -89 0
87 88 89 0
c gate 90 -86 -89 0
-86 -90 0
-89 -90 0
86 89 90 0
c gate 91 12 28 0
12 -91 0
28 -91 0
-12 -28 91 0
c gate 92 -12 -28 0
-12 -92 0
-28 -92 0
12 28 92 0
c gate 93 -91 -92 0
-91 -93 0
-92 -93 0
91 92 93 0
c gate 94 13 29 0
13 -94 0
29 -94 0
-13 -29 94 0
c gate 95 -13 -29 0
-13 -95 0
-29 -95 0
13 29 95 0
c gate 96 -94 -95 0
-94 -96 0
-95 -96 0
94 95 96 0
c gate 97 15 31 0
15 -97 0
31 -97 0
-15 -31 97 0
c gate 98 -15 -31 0
-15 -98 0
-31 -98 0
15 31 98 0
c gate 99 -97 -98 0
-97 -99 0
-98 -99 0
97 98 99 0
c gate 100 -96 -99 0
-96 -100 0
-99 -100 0
96 99 100 0
c gate 101 -93 100 0
-93 -101 0
100 -101 0
93 -100 101 0
c gate 102 90 101 0
90 -102 0
101 -102 0
-90 -101 102 0
c gate 103 83 102 0
83 -103 0
102 -103 0
-83 -102 103 0
c gate 104 -79 82 0
-79 -104 0
82 -104 0
79 -82 104 0
c gate 105 -83 -104 0
-83 -105 0
-104 -105 0
83 104 105 0
c gate 106 -37 -39 0
-37 -106 0
-39 -106 0
37 39 106 0
c gate 107 -77 -106 0
-77 -107 0
-106 -107 0
77 106 107 0
c gate 108 -36 -107 0
-36 -108 0
-107 -108 0
36 107 108 0
c gate 109 82 -108 0
82 -109 0
-108 -109 0
-82 108 109 0
c gate 110 -105 -109 0
-105 -110 0
-109 -110 0
105 109 110 0
c gate 111 77 106 0
77 -111 0
106 -111 0
-77 -106 111 0
c gate 112 -107 -111 0
-107 -112 0
-111 -112 0
107 111 112 0
c gate 113 74 77 0
74 -113 0
77 -113 0
-74 -77 113 0
c gate 114 -78 -113 0
-78 -114 0
-113 -114 0
78 113 114 0
c gate 115 112 -114 0
112 -115 0
-114 -115 0
-112 114 115 0
c gate 116 -112 114 0
-112 -116 0
114 -116 0
112 -114 116 0
c gate 117 -91 -94 0
-91 -117 0
-94 -117 0
91 94 117 0
c gate 118 86 117 0
86 -118 0
117 -118 0
-86 -117 118 0
c gate 119 -84 -118 0
-84 -119 0
-118 -119 0
84 118 119 0
c gate 120 99 119 0
99 -120 0
119 -120 0
-99 -119 120 0
c gate 121 -97 -120 0
-97 -121 0
-120 -121 0
97 120 121 0
c gate 122 89 121 0
89 -122 0
121 -122 0
-89 -121 122 0
c gate 123 9 25 0
9 -123 0
25 -123 0
-9 -25 123 0
c gate 124 -76 -123 0
-76 -124 0
-123 -124 0
76 123 124 0
c gate 125 3 19 0
3 -125 0
19 -125 0
-3 -19 125 0
c gate 126 34 -125 0
34 -126 0
-125 -126 0
-34 125 126 0
c gate 127 2 18 0
2 -127 0
18 -127 0
-2 -18 127 0
c gate 128 -33 -127 0
-33 -128 0
-127 -128 0
33 127 128 0
c gate 129 -3 -19 0
-3 -129 0
-19 -129 0
3 19 129 0
c gate 130 -128 -129 0
-128 -130 0
-129 -130 0
128 129 130 0
c gate 131 -125 -130 0
-125 -131 0
-130 -131 0
125 130 131 0
c gate 132 -126 -131 0
-126 -132 0
-131 -132 0
126 131 132 0
c gate 133 4 132 0
4 -133 0
132 -133 0
-4 -132 133 0
c gate 134 -20 -133 0
-20 -134 0
-133 -134 0
20 133 134 0
c gate 135 -5 -21 0
-5 -135 0
-21 -135 0
5 21 135 0
c gate 136 -4 -132 0
-4 -136 0
-132 -136 0
4 132 136 0
c gate 137 -135 -136 0
-135 -137 0
-136 -137 0
135 136 137 0
c gate 138 -134 137 0
-134 -138 0
137 -138 0
134 -137 138 0
c gate 139 5 21 0
5 -139 0
21 -139 0
-5 -21 139 0
c gate 140 66 -139 0
66 -140 0
-139 -140 0
-66 139 140 0
c gate 141 -138 140 0
-138 -141 0
140 -141 0
138 -140 141 0
c gate 142 -64 -141 0
-64 -142 0
-141 -142 0
64 141 142 0
c gate 143 -46 -142 0
-46 -143 0
-142 -143 0
46 142 143 0
c gate 144 42 143 0
42 -144 0
143 -144 0
-42 -143 144 0
c gate 145 -7 -23 0
-7 -145 0
-23 -145 0
7 23 145 0
c gate 146 -41 145 0
-41 -146 0
145 -146 0
41 -145 146 0
c gate 147 -9 -25 0
-9 -147 0
-25 -147 0
9 25 147 0
c gate 148 -40 -147 0
-40 -148 0
-147 -148 0
40 147 148 0
c gate 149 -146 148 0
-146 -149 0
148 -149 0
146 -148 149 0
c gate 150 -144 149 0
-144 -150 0
149 -150 0
144 -149 150 0
c gate 151 124 -150 0
124 -151 0
-150 -151 0
-124 150 151 0
c gate 152 -75 -151 0
-75 -152 0
-151 -152 0
75 151 152 0
c gate 153 -81 -152 0
-81 -153 0
-152 -153 0
81 152 153 0
c gate 154 -80 93 0
-80 -154 0
93 -154 0
80 -93 154 0
c gate 155 -153 154 0
-153 -155 0
154 -155 0
153 -154 155 0
c gate 156 117 -155 0
117 -156 0
-155 -156 0
-117 155 156 0
c gate 157 -95 -156 0
-95 -157 0
-156 -157 0
95 156 157 0
c gate 158 86 -157 0
86 -158 0
-157 -158 0
-86 157 158 0
c gate 159 -84 -158 0
-84 -159 0
-158 -159 0
84 158 159 0
c gate 160 99 -159 0
99 -160 0
-159 -160 0
-99 159 160 0
c gate 161 -98 -160 0
-98 -161 0
-160 -161 0
98 160 161 0
c gate 162 122 161 0
122 -162 0
161 -162 0
-122 -161 162 0
c gate 163 -68 -162 0
-68 -163 0
-162 -163 0
68 162 163 0
c gate 164 -86 -117 0
-86 -164 0
-117 -164 0
86 117 164 0
c gate 165 -118 -164 0
-118 -165 0
-164 -165 0
118 164 165 0
c gate 166 -86 157 0
-86 -166 0
157 -166 0
86 -157 166 0
c gate 167 -158 -166 0
-158 -167 0
-166 -167 0
158 166 167 0
c gate 168 -165 167 0
-165 -168 0
167 -168 0
165 -167 168 0
c gate 169 165 -167 0
165 -169 0
-167 -169 0
-165 167 169 0
c gate 170 -168 -169 0
-168 -170 0
-169 -170 0
168 169 170 0
c gate 171 124 -149 0
124 -171 0
-149 -171 0
-124 149 171 0
c gate 172 -75 154 0
-75 -172 0
154 -172 0
75 -154 172 0
c gate 173 -171 172 0
-171 -173 0
172 -173 0
171 -172 173 0
c gate 174 153 173 0
153 -174 0
173 -174 0
-153 -173 174 0
c gate 175 170 174 0
170 -175 0
174 -175 0
-170 -174 175 0
c gate 176 89 -161 0
89 -176 0
-161 -176 0
-89 161 176 0
c gate 177 -89 161 0
-89 -177 0
161 -177 0
89 -161 177 0
c gate 178 -176 -177 0
-176 -178 0
-177 -178 0
176 177 178 0
c gate 179 -89 -121 0
-89 -179 0
-121 -179 0
89 121 179 0
c gate 180 -122 -179 0
-122 -180 0
-179 -180 0
122 179 180 0
c gate 181 -178 180 0
-178 -181 0
180 -181 0
178 -180 181 0
c gate 182 178 -180 0
178 -182 0
-180 -182 0
-178 180 182 0
c gate 183 -99 -119 0
-99 -183 0
-119 -183 0
99 119 183 0
c gate 184 -120 -183 0
-120 -184 0
-183 -184 0
120 183 184 0
c gate 185 -99 159 0
-99 -185 0
159 -185 0
99 -159 185 0
c gate 186 -160 -185 0
-160 -186 0
-185 -186 0
160 185 186 0
c gate 187 -184 -186 0
-184 -187 0
-186 -187 0
184 186 187 0
c gate 188 184 186 0
184 -188 0
186 -188 0
-184 -186 188 0
c gate 189 -96 155 0
-96 -189 0
155 -189 0
96 -155 189 0
c gate 190 -169 -189 0
-169 -190 0
-189 -190 0
169 189 190 0
c gate 191 -188 -190 0
-188 -191 0
-190 -191 0
188 190 191 0
c gate 192 -187 -191 0
-187 -192 0
-191 -192 0
187 191 192 0
c gate 193 -182 -192 0
-182 -193 0
-192 -193 0
182 192 193 0
c gate 194 -181 -193 0
-181 -194 0
-193 -194 0
181 193 194 0
c gate 195 -175 194 0
-175 -195 0
194 -195 0
175 -194 195 0
c gate 196 -144 -155 0
-144 -196 0
-155 -196 0
144 155 196 0
c gate 197 170 196 0
170 -197 0
196 -197 0
-170 -196 197 0
c gate 198 -195 -197 0
-195 -198 0
-197 -198 0
195 197 198 0
c gate 199 163 198 0
163 -199 0
198 -199 0
-163 -198 199 0
c gate 200 -46 68 0
-46 -200 0
68 -200 0
46 -68 200 0
c gate 201 -68 -87 0
-68 -201 0
-87 -201 0
68 87 201 0
c gate 202 -122 201 0
-122 -202 0
201 -202 0
122 -201 202 0
c gate 203 176 202 0
176 -203 0
202 -203 0
-176 -202 203 0
c gate 204 -200 -203 0
-200 -204 0
-203 -204 0
200 203 204 0
c gate 205 -199 204 0
-199 -205 0
204 -205 0
199 -204 205 0
c gate 206 42 47 0
42 -206 0
47 -206 0
-42 -47 206 0
c gate 207 70 206 0
70 -207 0
206 -207 0
-70 -206 207 0
c gate 208 205 -207 0
205 -208 0
-207 -208 0
-205 207 208 0
c gate 209 -71 -208 0
-71 -209 0
-208 -209 0
71 208 209 0
c gate 210 -37 -38 0
-37 -210 0
-38 -210 0
37 38 210 0
c gate 211 71 -210 0
71 -211 0
-210 -211 0
-71 210 211 0
c gate 212 -209 -211 0
-209 -212 0
-211 -212 0
209 211 212 0
c gate 213 -116 212 0
-116 -213 0
212 -213 0
116 -212 213 0
c gate 214 -115 -213 0
-115 -214 0
-213 -214 0
115 213 214 0
c gate 215 -110 -214 0
-110 -215 0
-214 -215 0
110 214 215 0
c gate 216 79 109 0
79 -216 0
109 -216 0
-79 -109 216 0
c gate 217 -83 -216 0
-83 -217 0
-216 -217 0
83 216 217 0
c gate 218 -215 217 0
-215 -218 0
217 -218 0
215 -217 218 0
c gate 219 -103 -218 0
-103 -219 0
-218 -219 0
103 218 219 0
c gate 220 35 -219 0
35 -220 0
-219 -220 0
-35 219 220 0
c gate 221 -60 -63 0
-60 -221 0
-63 -221 0
60 63 221 0
c gate 222 -56 -59 0
-56 -222 0
-59 -222 0
56 59 222 0
c gate 223 126 -222 0
126 -223 0
-222 -223 0
-126 222 223 0
c gate 224 -221 223 0
-221 -224 0
223 -224 0
221 -223 224 0
c gate 225 -131 224 0
-131 -225 0
224 -225 0
131 -224 225 0
c gate 226 141 -225 0
141 -226 0
-225 -226 0
-141 225 226 0
c gate 227 -220 226 0
-220 -227 0
226 -227 0
220 -226 227 0
c gate 228 220 -226 0
220 -228 0
-226 -228 0
-220 226 228 0
c gate 229 -227 -228 0
-227 -229 0
-228 -229 0
227 228 229 0
c PO
-229 0
